NAME: GRASP_13_8
TYPE: TSP
COMMENT: line_13_8
DIMENSION: 13
EDGE_WEIGHT_TYPE: EUC_2D
NODE_COORD_SECTION
1 0.0 88.0
2 0.0 68.0
3 0.0 60.0
4 0.0 62.0
5 0.0 34.0
6 0.0 65.0
7 0.0 114.0
8 0.0 14.0
9 0.0 29.0
10 0.0 15.0
11 0.0 97.0
12 0.0 1.0
13 0.0 98.0
